12
0 82 70 64 68 12 61 21 22 94 81 86 
82 0 93 78 65 95 62 77 59 97 39 22 
70 93 0 43 47 95 22 55 12 2 63 56 
64 78 43 0 2 69 73 62 26 77 82 63 
68 65 47 2 0 47 19 39 82 7 60 97 
12 95 95 69 47 0 25 23 92 4 51 55 
61 62 22 73 19 25 0 36 75 48 31 9 
21 77 55 62 39 23 36 0 55 66 42 72 
22 59 12 26 82 92 75 55 0 6 73 97 
94 97 2 77 7 4 48 66 6 0 40 65 
81 39 63 82 60 51 31 42 73 40 0 23 
86 22 56 63 97 55 9 72 97 65 23 0 
RRBRRRBBBBRB
